104667
13,75,66,19,8,31,73,39,10,32,26,15,37,74,34,29,1,60,5,78,27,7,82,52,58,67,43,21,81,57,76,16,55,6,50,71,80,42,59,46,48,33,56,2,11,22,54,41,14,24,68,77,40,51,38,62,3,49,64,30,23,47,18,4,20,17,36,12,72,63,0,9,28,44,45,53,70,65,35,25,79,61,69
